sat
(model
  (define-fun |g$unknown:6|
    ( (v_0 Int) (v_1 Int) ) Bool
    true
  )
  (define-fun |f$unknown:1|
    ( (v_0 Int) ) Bool
    true
  )
  (define-fun |f$unknown:2|
    ( (v_0 Int) (v_1 Int) ) Bool
    (= v_0 0)
  )
  (define-fun |g$unknown:5|
    ( (v_0 Int) ) Bool
    (|f$unknown:2| v_0 0)
  )
  (define-fun |f$unknown:3|
    ( (v_0 Int) (v_1 Int) (v_2 Int) ) Bool
    true
  )
  (define-fun |f$unknown:4|
    ( (v_0 Int) (v_1 Int) ) Bool
    true
  )
)
